(set-option :produce-models true)
(set-option :produce-unsat-cores true)
(set-option :produce-interpolants true)
(set-option :interpolant-check-mode true)
(set-option :proof-transformation LU)
(set-logic ALL)
(set-info :source |SMT script generated on 2024-03-31T00:10:41+01:00 by Ultimate (https://ultimate.informatik.uni-freiburg.de/)|)
(set-info :smt-lib-version 2.5)
(set-info :category "industrial")
(set-info :ultimate-id nested_6.c_AllErrorsAtOnce_Iteration12)
(declare-fun |c_old(#valid)| () (Array Int Int))
(declare-fun |c_old(#valid)_primed| () (Array Int Int))
(declare-fun |c_#valid| () (Array Int Int))
(declare-fun |c_#valid_primed| () (Array Int Int))
(declare-fun |c_old(#length)| () (Array Int Int))
(declare-fun |c_old(#length)_primed| () (Array Int Int))
(declare-fun |c_#length| () (Array Int Int))
(declare-fun |c_#length_primed| () (Array Int Int))
(declare-fun |c_old(#memory_int#0)| () (Array Int (Array Int Int)))
(declare-fun |c_old(#memory_int#0)_primed| () (Array Int (Array Int Int)))
(declare-fun |c_#memory_int#0| () (Array Int (Array Int Int)))
(declare-fun |c_#memory_int#0_primed| () (Array Int (Array Int Int)))
(declare-fun |c_old(#StackHeapBarrier)| () Int)
(declare-fun |c_old(#StackHeapBarrier)_primed| () Int)
(declare-fun |c_#StackHeapBarrier| () Int)
(declare-fun |c_#StackHeapBarrier_primed| () Int)
(declare-fun |c_#Ultimate.allocInit_~size| () Int)
(declare-fun |c_#Ultimate.allocInit_~size_primed| () Int)
(declare-fun |c_#Ultimate.allocInit_ptrBase| () Int)
(declare-fun |c_#Ultimate.allocInit_ptrBase_primed| () Int)
(declare-fun |c_read~int#0_#ptr.base| () Int)
(declare-fun |c_read~int#0_#ptr.base_primed| () Int)
(declare-fun |c_read~int#0_#ptr.offset| () Int)
(declare-fun |c_read~int#0_#ptr.offset_primed| () Int)
(declare-fun |c_read~int#0_#sizeOfReadType| () Int)
(declare-fun |c_read~int#0_#sizeOfReadType_primed| () Int)
(declare-fun |c_read~int#0_#value| () Int)
(declare-fun |c_read~int#0_#value_primed| () Int)
(declare-fun |c_ULTIMATE.start_#t~ret10| () Int)
(declare-fun |c_ULTIMATE.start_#t~ret10_primed| () Int)
(declare-fun |c_main_#res| () Int)
(declare-fun |c_main_#res_primed| () Int)
(declare-fun |c_main_#t~pre4| () Int)
(declare-fun |c_main_#t~pre4_primed| () Int)
(declare-fun |c_main_#t~pre5| () Int)
(declare-fun |c_main_#t~pre5_primed| () Int)
(declare-fun |c_main_#t~pre6| () Int)
(declare-fun |c_main_#t~pre6_primed| () Int)
(declare-fun |c_main_#t~pre7| () Int)
(declare-fun |c_main_#t~pre7_primed| () Int)
(declare-fun |c_main_#t~pre8| () Int)
(declare-fun |c_main_#t~pre8_primed| () Int)
(declare-fun |c_main_#t~pre9| () Int)
(declare-fun |c_main_#t~pre9_primed| () Int)
(declare-fun c_main_~a~0 () Int)
(declare-fun c_main_~a~0_primed () Int)
(declare-fun c_main_~b~0 () Int)
(declare-fun c_main_~b~0_primed () Int)
(declare-fun c_main_~c~0 () Int)
(declare-fun c_main_~c~0_primed () Int)
(declare-fun c_main_~d~0 () Int)
(declare-fun c_main_~d~0_primed () Int)
(declare-fun c_main_~e~0 () Int)
(declare-fun c_main_~e~0_primed () Int)
(declare-fun c_main_~f~0 () Int)
(declare-fun c_main_~f~0_primed () Int)
(declare-fun |c_write~int#0_#value| () Int)
(declare-fun |c_write~int#0_#value_primed| () Int)
(declare-fun |c_write~int#0_#ptr.base| () Int)
(declare-fun |c_write~int#0_#ptr.base_primed| () Int)
(declare-fun |c_write~int#0_#ptr.offset| () Int)
(declare-fun |c_write~int#0_#ptr.offset_primed| () Int)
(declare-fun |c_write~int#0_#sizeOfWrittenType| () Int)
(declare-fun |c_write~int#0_#sizeOfWrittenType_primed| () Int)
(declare-fun |c___assert_fail_#in~0.base| () Int)
(declare-fun |c___assert_fail_#in~0.base_primed| () Int)
(declare-fun |c___assert_fail_#in~0.offset| () Int)
(declare-fun |c___assert_fail_#in~0.offset_primed| () Int)
(declare-fun |c___assert_fail_#in~1.base| () Int)
(declare-fun |c___assert_fail_#in~1.base_primed| () Int)
(declare-fun |c___assert_fail_#in~1.offset| () Int)
(declare-fun |c___assert_fail_#in~1.offset_primed| () Int)
(declare-fun |c___assert_fail_#in~2| () Int)
(declare-fun |c___assert_fail_#in~2_primed| () Int)
(declare-fun |c___assert_fail_#in~3.base| () Int)
(declare-fun |c___assert_fail_#in~3.base_primed| () Int)
(declare-fun |c___assert_fail_#in~3.offset| () Int)
(declare-fun |c___assert_fail_#in~3.offset_primed| () Int)
(declare-fun |c_write~init~int#0_#value| () Int)
(declare-fun |c_write~init~int#0_#value_primed| () Int)
(declare-fun |c_write~init~int#0_#ptr.base| () Int)
(declare-fun |c_write~init~int#0_#ptr.base_primed| () Int)
(declare-fun |c_write~init~int#0_#ptr.offset| () Int)
(declare-fun |c_write~init~int#0_#ptr.offset_primed| () Int)
(declare-fun |c_write~init~int#0_#sizeOfWrittenType| () Int)
(declare-fun |c_write~init~int#0_#sizeOfWrittenType_primed| () Int)
(declare-fun c_ULTIMATE.dealloc_~addr.base () Int)
(declare-fun c_ULTIMATE.dealloc_~addr.base_primed () Int)
(declare-fun c_ULTIMATE.dealloc_~addr.offset () Int)
(declare-fun c_ULTIMATE.dealloc_~addr.offset_primed () Int)
(declare-fun |c_aux_v_ULTIMATE.start_#t~ret10_3| () Int)
(echo "starting trace check")
(push 1)
(declare-fun |#memory_int#0_-1| () (Array Int (Array Int Int)))
(declare-fun |#StackHeapBarrier_-1| () Int)
(declare-fun |#length_-1| () (Array Int Int))
(declare-fun |#valid_-1| () (Array Int Int))
(declare-fun main_~f~0_4 () Int)
(declare-fun main_~e~0_4 () Int)
(declare-fun main_~c~0_4 () Int)
(declare-fun main_~d~0_4 () Int)
(declare-fun main_~b~0_4 () Int)
(declare-fun main_~a~0_4 () Int)
(declare-fun main_~b~0_5 () Int)
(declare-fun main_~c~0_6 () Int)
(declare-fun main_~d~0_7 () Int)
(declare-fun main_~e~0_8 () Int)
(declare-fun main_~f~0_9 () Int)
(declare-fun main_~f~0_10 () Int)
(declare-fun |main_#t~pre4_10| () Int)
(declare-fun main_~f~0_11 () Int)
(declare-fun |main_#t~pre4_11| () Int)
(declare-fun main_~e~0_13 () Int)
(declare-fun |main_#t~pre5_13| () Int)
(declare-fun main_~f~0_14 () Int)
(declare-fun main_~f~0_15 () Int)
(declare-fun |main_#t~pre4_15| () Int)
(declare-fun main_~f~0_16 () Int)
(declare-fun |main_#t~pre4_16| () Int)
(declare-fun main_~e~0_18 () Int)
(declare-fun |main_#t~pre5_18| () Int)
(declare-fun main_~d~0_20 () Int)
(declare-fun |main_#t~pre6_20| () Int)
(declare-fun main_~e~0_21 () Int)
(declare-fun main_~f~0_22 () Int)
(declare-fun main_~f~0_23 () Int)
(declare-fun |main_#t~pre4_23| () Int)
(declare-fun main_~f~0_24 () Int)
(declare-fun |main_#t~pre4_24| () Int)
(declare-fun main_~e~0_26 () Int)
(declare-fun |main_#t~pre5_26| () Int)
(declare-fun main_~f~0_27 () Int)
(declare-fun main_~f~0_28 () Int)
(declare-fun |main_#t~pre4_28| () Int)
(declare-fun main_~f~0_29 () Int)
(declare-fun |main_#t~pre4_29| () Int)
(declare-fun main_~e~0_31 () Int)
(declare-fun |main_#t~pre5_31| () Int)
(declare-fun main_~d~0_33 () Int)
(declare-fun |main_#t~pre6_33| () Int)
(declare-fun |main_#t~pre7_35| () Int)
(declare-fun main_~c~0_35 () Int)
(declare-fun main_~d~0_36 () Int)
(declare-fun main_~e~0_37 () Int)
(declare-fun main_~f~0_38 () Int)
(declare-fun main_~f~0_39 () Int)
(declare-fun |main_#t~pre4_39| () Int)
(declare-fun main_~f~0_40 () Int)
(declare-fun |main_#t~pre4_40| () Int)
(declare-fun main_~e~0_42 () Int)
(declare-fun |main_#t~pre5_42| () Int)
(declare-fun main_~f~0_43 () Int)
(declare-fun main_~f~0_44 () Int)
(declare-fun |main_#t~pre4_44| () Int)
(declare-fun main_~f~0_45 () Int)
(declare-fun |main_#t~pre4_45| () Int)
(declare-fun main_~e~0_47 () Int)
(declare-fun |main_#t~pre5_47| () Int)
(declare-fun main_~d~0_49 () Int)
(declare-fun |main_#t~pre6_49| () Int)
(declare-fun main_~e~0_50 () Int)
(declare-fun main_~f~0_51 () Int)
(declare-fun main_~f~0_52 () Int)
(declare-fun |main_#t~pre4_52| () Int)
(declare-fun main_~f~0_53 () Int)
(declare-fun |main_#t~pre4_53| () Int)
(declare-fun main_~e~0_55 () Int)
(declare-fun |main_#t~pre5_55| () Int)
(declare-fun main_~f~0_56 () Int)
(declare-fun main_~f~0_57 () Int)
(declare-fun |main_#t~pre4_57| () Int)
(declare-fun main_~f~0_58 () Int)
(declare-fun |main_#t~pre4_58| () Int)
(declare-fun main_~e~0_60 () Int)
(declare-fun |main_#t~pre5_60| () Int)
(declare-fun main_~d~0_62 () Int)
(declare-fun |main_#t~pre6_62| () Int)
(declare-fun |main_#t~pre7_64| () Int)
(declare-fun main_~c~0_64 () Int)
(declare-fun |main_#t~pre8_66| () Int)
(declare-fun main_~b~0_66 () Int)
(declare-fun main_~c~0_67 () Int)
(declare-fun main_~d~0_68 () Int)
(declare-fun main_~e~0_69 () Int)
(declare-fun main_~f~0_70 () Int)
(declare-fun main_~f~0_71 () Int)
(declare-fun |main_#t~pre4_71| () Int)
(declare-fun main_~f~0_72 () Int)
(declare-fun |main_#t~pre4_72| () Int)
(declare-fun main_~e~0_74 () Int)
(declare-fun |main_#t~pre5_74| () Int)
(declare-fun main_~f~0_75 () Int)
(declare-fun main_~f~0_76 () Int)
(declare-fun |main_#t~pre4_76| () Int)
(declare-fun main_~f~0_77 () Int)
(declare-fun |main_#t~pre4_77| () Int)
(declare-fun main_~e~0_79 () Int)
(declare-fun |main_#t~pre5_79| () Int)
(declare-fun main_~d~0_81 () Int)
(declare-fun |main_#t~pre6_81| () Int)
(declare-fun main_~e~0_82 () Int)
(declare-fun main_~f~0_83 () Int)
(declare-fun main_~f~0_84 () Int)
(declare-fun |main_#t~pre4_84| () Int)
(declare-fun main_~f~0_85 () Int)
(declare-fun |main_#t~pre4_85| () Int)
(declare-fun main_~e~0_87 () Int)
(declare-fun |main_#t~pre5_87| () Int)
(declare-fun main_~f~0_88 () Int)
(declare-fun main_~f~0_89 () Int)
(declare-fun |main_#t~pre4_89| () Int)
(declare-fun main_~f~0_90 () Int)
(declare-fun |main_#t~pre4_90| () Int)
(declare-fun main_~e~0_92 () Int)
(declare-fun |main_#t~pre5_92| () Int)
(declare-fun main_~d~0_94 () Int)
(declare-fun |main_#t~pre6_94| () Int)
(declare-fun |main_#t~pre7_96| () Int)
(declare-fun main_~c~0_96 () Int)
(declare-fun main_~d~0_97 () Int)
(declare-fun main_~e~0_98 () Int)
(declare-fun main_~f~0_99 () Int)
(declare-fun main_~f~0_100 () Int)
(declare-fun |main_#t~pre4_100| () Int)
(declare-fun main_~f~0_101 () Int)
(declare-fun |main_#t~pre4_101| () Int)
(declare-fun main_~e~0_103 () Int)
(declare-fun |main_#t~pre5_103| () Int)
(declare-fun main_~f~0_104 () Int)
(declare-fun main_~f~0_105 () Int)
(declare-fun |main_#t~pre4_105| () Int)
(declare-fun main_~f~0_106 () Int)
(declare-fun |main_#t~pre4_106| () Int)
(declare-fun main_~e~0_108 () Int)
(declare-fun |main_#t~pre5_108| () Int)
(declare-fun main_~d~0_110 () Int)
(declare-fun |main_#t~pre6_110| () Int)
(declare-fun main_~e~0_111 () Int)
(declare-fun main_~f~0_112 () Int)
(declare-fun main_~f~0_113 () Int)
(declare-fun |main_#t~pre4_113| () Int)
(declare-fun main_~f~0_114 () Int)
(declare-fun |main_#t~pre4_114| () Int)
(declare-fun main_~e~0_116 () Int)
(declare-fun |main_#t~pre5_116| () Int)
(declare-fun main_~f~0_117 () Int)
(declare-fun main_~f~0_118 () Int)
(declare-fun |main_#t~pre4_118| () Int)
(declare-fun main_~f~0_119 () Int)
(declare-fun |main_#t~pre4_119| () Int)
(declare-fun main_~e~0_121 () Int)
(declare-fun |main_#t~pre5_121| () Int)
(declare-fun main_~d~0_123 () Int)
(declare-fun |main_#t~pre6_123| () Int)
(declare-fun |main_#t~pre7_125| () Int)
(declare-fun main_~c~0_125 () Int)
(declare-fun |main_#t~pre8_127| () Int)
(declare-fun main_~b~0_127 () Int)
(declare-fun |main_#t~pre9_129| () Int)
(declare-fun main_~a~0_129 () Int)
(declare-fun main_~e~0_131 () Int)
(declare-fun main_~f~0_131 () Int)
(declare-fun main_~c~0_131 () Int)
(declare-fun main_~d~0_131 () Int)
(declare-fun main_~b~0_131 () Int)
(declare-fun main_~a~0_131 () Int)
(assert (! true :named ssa_precond))
(assert (! (not false) :named ssa_postcond))
(assert (! true :named ssa_0_GlobVarAssigCall))
(assert (! true :named ssa_0_LocVarAssigCall))
(assert (! true :named ssa_0_OldVarAssigCall))
(assert (! (and (< 0 |#StackHeapBarrier_-1|) (= 12 (select |#length_-1| 3)) (= (select |#valid_-1| 3) 1) (= (select |#valid_-1| 2) 1) (= (select |#valid_-1| 1) 1) (= (select |#length_-1| 2) 11) (= (select (select |#memory_int#0_-1| 1) 1) 0) (= (select |#length_-1| 1) 2) (= (select (select |#memory_int#0_-1| 1) 0) 48) (= (select |#valid_-1| 0) 0)) :named ssa_1))
(assert (! true :named ssa_2_return))
(assert (! true :named ssa_3_GlobVarAssigCall))
(assert (! true :named ssa_3_LocVarAssigCall))
(assert (! true :named ssa_3_OldVarAssigCall))
(assert (! (and (= main_~a~0_4 0) (= main_~d~0_4 6) (= main_~c~0_4 6) (= main_~e~0_4 6) (= main_~b~0_4 6) (= main_~f~0_4 6)) :named ssa_4))
(assert (! (and (< main_~a~0_4 6) (= main_~b~0_5 0)) :named ssa_5))
(assert (! (and (= main_~c~0_6 0) (< main_~b~0_5 6)) :named ssa_6))
(assert (! (and (= main_~d~0_7 0) (< main_~c~0_6 6)) :named ssa_7))
(assert (! (and (= main_~e~0_8 0) (< main_~d~0_7 6)) :named ssa_8))
(assert (! (and (< main_~e~0_8 6) (= main_~f~0_9 0)) :named ssa_9))
(assert (! (and (< main_~f~0_9 6) (= main_~f~0_10 (+ main_~f~0_9 1))) :named ssa_10))
(assert (! (and (< main_~f~0_10 6) (= main_~f~0_11 (+ main_~f~0_10 1))) :named ssa_11))
(assert (! (<= 6 main_~f~0_11) :named ssa_12))
(assert (! (= main_~e~0_13 (+ main_~e~0_8 1)) :named ssa_13))
(assert (! (and (< main_~e~0_13 6) (= main_~f~0_14 0)) :named ssa_14))
(assert (! (and (< main_~f~0_14 6) (= main_~f~0_15 (+ main_~f~0_14 1))) :named ssa_15))
(assert (! (and (< main_~f~0_15 6) (= main_~f~0_16 (+ main_~f~0_15 1))) :named ssa_16))
(assert (! (<= 6 main_~f~0_16) :named ssa_17))
(assert (! (= main_~e~0_18 (+ main_~e~0_13 1)) :named ssa_18))
(assert (! (<= 6 main_~e~0_18) :named ssa_19))
(assert (! (= main_~d~0_20 (+ main_~d~0_7 1)) :named ssa_20))
(assert (! (and (= main_~e~0_21 0) (< main_~d~0_20 6)) :named ssa_21))
(assert (! (and (< main_~e~0_21 6) (= main_~f~0_22 0)) :named ssa_22))
(assert (! (and (< main_~f~0_22 6) (= main_~f~0_23 (+ main_~f~0_22 1))) :named ssa_23))
(assert (! (and (< main_~f~0_23 6) (= main_~f~0_24 (+ main_~f~0_23 1))) :named ssa_24))
(assert (! (<= 6 main_~f~0_24) :named ssa_25))
(assert (! (= main_~e~0_26 (+ main_~e~0_21 1)) :named ssa_26))
(assert (! (and (< main_~e~0_26 6) (= main_~f~0_27 0)) :named ssa_27))
(assert (! (and (< main_~f~0_27 6) (= main_~f~0_28 (+ main_~f~0_27 1))) :named ssa_28))
(assert (! (and (< main_~f~0_28 6) (= main_~f~0_29 (+ main_~f~0_28 1))) :named ssa_29))
(assert (! (<= 6 main_~f~0_29) :named ssa_30))
(assert (! (= main_~e~0_31 (+ main_~e~0_26 1)) :named ssa_31))
(assert (! (<= 6 main_~e~0_31) :named ssa_32))
(assert (! (= main_~d~0_33 (+ main_~d~0_20 1)) :named ssa_33))
(assert (! (<= 6 main_~d~0_33) :named ssa_34))
(assert (! (= (+ main_~c~0_6 1) main_~c~0_35) :named ssa_35))
(assert (! (and (= main_~d~0_36 0) (< main_~c~0_35 6)) :named ssa_36))
(assert (! (and (= main_~e~0_37 0) (< main_~d~0_36 6)) :named ssa_37))
(assert (! (and (< main_~e~0_37 6) (= main_~f~0_38 0)) :named ssa_38))
(assert (! (and (< main_~f~0_38 6) (= main_~f~0_39 (+ main_~f~0_38 1))) :named ssa_39))
(assert (! (and (< main_~f~0_39 6) (= main_~f~0_40 (+ main_~f~0_39 1))) :named ssa_40))
(assert (! (<= 6 main_~f~0_40) :named ssa_41))
(assert (! (= main_~e~0_42 (+ main_~e~0_37 1)) :named ssa_42))
(assert (! (and (< main_~e~0_42 6) (= main_~f~0_43 0)) :named ssa_43))
(assert (! (and (< main_~f~0_43 6) (= main_~f~0_44 (+ main_~f~0_43 1))) :named ssa_44))
(assert (! (and (< main_~f~0_44 6) (= main_~f~0_45 (+ main_~f~0_44 1))) :named ssa_45))
(assert (! (<= 6 main_~f~0_45) :named ssa_46))
(assert (! (= main_~e~0_47 (+ main_~e~0_42 1)) :named ssa_47))
(assert (! (<= 6 main_~e~0_47) :named ssa_48))
(assert (! (= main_~d~0_49 (+ main_~d~0_36 1)) :named ssa_49))
(assert (! (and (= main_~e~0_50 0) (< main_~d~0_49 6)) :named ssa_50))
(assert (! (and (< main_~e~0_50 6) (= main_~f~0_51 0)) :named ssa_51))
(assert (! (and (< main_~f~0_51 6) (= main_~f~0_52 (+ main_~f~0_51 1))) :named ssa_52))
(assert (! (and (< main_~f~0_52 6) (= main_~f~0_53 (+ main_~f~0_52 1))) :named ssa_53))
(assert (! (<= 6 main_~f~0_53) :named ssa_54))
(assert (! (= main_~e~0_55 (+ main_~e~0_50 1)) :named ssa_55))
(assert (! (and (< main_~e~0_55 6) (= main_~f~0_56 0)) :named ssa_56))
(assert (! (and (< main_~f~0_56 6) (= main_~f~0_57 (+ main_~f~0_56 1))) :named ssa_57))
(assert (! (and (< main_~f~0_57 6) (= main_~f~0_58 (+ main_~f~0_57 1))) :named ssa_58))
(assert (! (<= 6 main_~f~0_58) :named ssa_59))
(assert (! (= main_~e~0_60 (+ main_~e~0_55 1)) :named ssa_60))
(assert (! (<= 6 main_~e~0_60) :named ssa_61))
(assert (! (= main_~d~0_62 (+ main_~d~0_49 1)) :named ssa_62))
(assert (! (<= 6 main_~d~0_62) :named ssa_63))
(assert (! (= (+ main_~c~0_35 1) main_~c~0_64) :named ssa_64))
(assert (! (<= 6 main_~c~0_64) :named ssa_65))
(assert (! (= main_~b~0_66 (+ main_~b~0_5 1)) :named ssa_66))
(assert (! (and (= main_~c~0_67 0) (< main_~b~0_66 6)) :named ssa_67))
(assert (! (and (= main_~d~0_68 0) (< main_~c~0_67 6)) :named ssa_68))
(assert (! (and (= main_~e~0_69 0) (< main_~d~0_68 6)) :named ssa_69))
(assert (! (and (< main_~e~0_69 6) (= main_~f~0_70 0)) :named ssa_70))
(assert (! (and (< main_~f~0_70 6) (= main_~f~0_71 (+ main_~f~0_70 1))) :named ssa_71))
(assert (! (and (< main_~f~0_71 6) (= main_~f~0_72 (+ main_~f~0_71 1))) :named ssa_72))
(assert (! (<= 6 main_~f~0_72) :named ssa_73))
(assert (! (= main_~e~0_74 (+ main_~e~0_69 1)) :named ssa_74))
(assert (! (and (< main_~e~0_74 6) (= main_~f~0_75 0)) :named ssa_75))
(assert (! (and (< main_~f~0_75 6) (= main_~f~0_76 (+ main_~f~0_75 1))) :named ssa_76))
(assert (! (and (< main_~f~0_76 6) (= main_~f~0_77 (+ main_~f~0_76 1))) :named ssa_77))
(assert (! (<= 6 main_~f~0_77) :named ssa_78))
(assert (! (= main_~e~0_79 (+ main_~e~0_74 1)) :named ssa_79))
(assert (! (<= 6 main_~e~0_79) :named ssa_80))
(assert (! (= main_~d~0_81 (+ main_~d~0_68 1)) :named ssa_81))
(assert (! (and (= main_~e~0_82 0) (< main_~d~0_81 6)) :named ssa_82))
(assert (! (and (< main_~e~0_82 6) (= main_~f~0_83 0)) :named ssa_83))
(assert (! (and (< main_~f~0_83 6) (= main_~f~0_84 (+ main_~f~0_83 1))) :named ssa_84))
(assert (! (and (< main_~f~0_84 6) (= main_~f~0_85 (+ main_~f~0_84 1))) :named ssa_85))
(assert (! (<= 6 main_~f~0_85) :named ssa_86))
(assert (! (= main_~e~0_87 (+ main_~e~0_82 1)) :named ssa_87))
(assert (! (and (< main_~e~0_87 6) (= main_~f~0_88 0)) :named ssa_88))
(assert (! (and (< main_~f~0_88 6) (= main_~f~0_89 (+ main_~f~0_88 1))) :named ssa_89))
(assert (! (and (< main_~f~0_89 6) (= main_~f~0_90 (+ main_~f~0_89 1))) :named ssa_90))
(assert (! (<= 6 main_~f~0_90) :named ssa_91))
(assert (! (= main_~e~0_92 (+ main_~e~0_87 1)) :named ssa_92))
(assert (! (<= 6 main_~e~0_92) :named ssa_93))
(assert (! (= main_~d~0_94 (+ main_~d~0_81 1)) :named ssa_94))
(assert (! (<= 6 main_~d~0_94) :named ssa_95))
(assert (! (= (+ main_~c~0_67 1) main_~c~0_96) :named ssa_96))
(assert (! (and (= main_~d~0_97 0) (< main_~c~0_96 6)) :named ssa_97))
(assert (! (and (= main_~e~0_98 0) (< main_~d~0_97 6)) :named ssa_98))
(assert (! (and (< main_~e~0_98 6) (= main_~f~0_99 0)) :named ssa_99))
(assert (! (and (< main_~f~0_99 6) (= main_~f~0_100 (+ main_~f~0_99 1))) :named ssa_100))
(assert (! (and (< main_~f~0_100 6) (= main_~f~0_101 (+ main_~f~0_100 1))) :named ssa_101))
(assert (! (<= 6 main_~f~0_101) :named ssa_102))
(assert (! (= main_~e~0_103 (+ main_~e~0_98 1)) :named ssa_103))
(assert (! (and (< main_~e~0_103 6) (= main_~f~0_104 0)) :named ssa_104))
(assert (! (and (< main_~f~0_104 6) (= main_~f~0_105 (+ main_~f~0_104 1))) :named ssa_105))
(assert (! (and (< main_~f~0_105 6) (= main_~f~0_106 (+ main_~f~0_105 1))) :named ssa_106))
(assert (! (<= 6 main_~f~0_106) :named ssa_107))
(assert (! (= main_~e~0_108 (+ main_~e~0_103 1)) :named ssa_108))
(assert (! (<= 6 main_~e~0_108) :named ssa_109))
(assert (! (= main_~d~0_110 (+ main_~d~0_97 1)) :named ssa_110))
(assert (! (and (= main_~e~0_111 0) (< main_~d~0_110 6)) :named ssa_111))
(assert (! (and (< main_~e~0_111 6) (= main_~f~0_112 0)) :named ssa_112))
(assert (! (and (< main_~f~0_112 6) (= main_~f~0_113 (+ main_~f~0_112 1))) :named ssa_113))
(assert (! (and (< main_~f~0_113 6) (= main_~f~0_114 (+ main_~f~0_113 1))) :named ssa_114))
(assert (! (<= 6 main_~f~0_114) :named ssa_115))
(assert (! (= main_~e~0_116 (+ main_~e~0_111 1)) :named ssa_116))
(assert (! (and (< main_~e~0_116 6) (= main_~f~0_117 0)) :named ssa_117))
(assert (! (and (< main_~f~0_117 6) (= main_~f~0_118 (+ main_~f~0_117 1))) :named ssa_118))
(assert (! (and (< main_~f~0_118 6) (= main_~f~0_119 (+ main_~f~0_118 1))) :named ssa_119))
(assert (! (<= 6 main_~f~0_119) :named ssa_120))
(assert (! (= main_~e~0_121 (+ main_~e~0_116 1)) :named ssa_121))
(assert (! (<= 6 main_~e~0_121) :named ssa_122))
(assert (! (= main_~d~0_123 (+ main_~d~0_110 1)) :named ssa_123))
(assert (! (<= 6 main_~d~0_123) :named ssa_124))
(assert (! (= (+ main_~c~0_96 1) main_~c~0_125) :named ssa_125))
(assert (! (<= 6 main_~c~0_125) :named ssa_126))
(assert (! (= main_~b~0_127 (+ main_~b~0_66 1)) :named ssa_127))
(assert (! (<= 6 main_~b~0_127) :named ssa_128))
(assert (! (= main_~a~0_129 (+ main_~a~0_4 1)) :named ssa_129))
(assert (! (<= 6 main_~a~0_129) :named ssa_130))
(assert (! (or (not (= main_~c~0_125 6)) (not (= main_~d~0_123 6)) (not (= main_~a~0_129 6)) (not (= main_~f~0_119 6)) (not (= main_~e~0_121 6)) (not (= main_~b~0_127 6))) :named ssa_131))
(assert (! true :named ssa_132))
(check-sat)
(get-interpolants (and ssa_0_LocVarAssigCall ssa_precond ssa_0_GlobVarAssigCall ssa_0_OldVarAssigCall ssa_2_return ssa_1) (and ssa_3_OldVarAssigCall ssa_3_LocVarAssigCall ssa_3_GlobVarAssigCall) ssa_4 ssa_5 ssa_6 ssa_7 ssa_8 ssa_9 ssa_10 ssa_11 ssa_12 ssa_13 ssa_14 ssa_15 ssa_16 ssa_17 ssa_18 ssa_19 ssa_20 ssa_21 ssa_22 ssa_23 ssa_24 ssa_25 ssa_26 ssa_27 ssa_28 ssa_29 ssa_30 ssa_31 ssa_32 ssa_33 ssa_34 ssa_35 ssa_36 ssa_37 ssa_38 ssa_39 ssa_40 ssa_41 ssa_42 ssa_43 ssa_44 ssa_45 ssa_46 ssa_47 ssa_48 ssa_49 ssa_50 ssa_51 ssa_52 ssa_53 ssa_54 ssa_55 ssa_56 ssa_57 ssa_58 ssa_59 ssa_60 ssa_61 ssa_62 ssa_63 ssa_64 ssa_65 ssa_66 ssa_67 ssa_68 ssa_69 ssa_70 ssa_71 ssa_72 ssa_73 ssa_74 ssa_75 ssa_76 ssa_77 ssa_78 ssa_79 ssa_80 ssa_81 ssa_82 ssa_83 ssa_84 ssa_85 ssa_86 ssa_87 ssa_88 ssa_89 ssa_90 ssa_91 ssa_92 ssa_93 ssa_94 ssa_95 ssa_96 ssa_97 ssa_98 ssa_99 ssa_100 ssa_101 ssa_102 ssa_103 ssa_104 ssa_105 ssa_106 ssa_107 ssa_108 ssa_109 ssa_110 ssa_111 ssa_112 ssa_113 ssa_114 ssa_115 ssa_116 ssa_117 ssa_118 ssa_119 ssa_120 ssa_121 ssa_122 ssa_123 ssa_124 ssa_125 ssa_126 ssa_127 ssa_128 ssa_129 ssa_130 ssa_131 (and ssa_132 ssa_postcond))
(echo "finished trace check")
(pop 1)
(echo "starting trace check")
(push 1)
(declare-fun |#memory_int#0_-1| () (Array Int (Array Int Int)))
(declare-fun |#StackHeapBarrier_-1| () Int)
(declare-fun |#length_-1| () (Array Int Int))
(declare-fun |#valid_-1| () (Array Int Int))
(assert (! true :named ssa_precond))
(assert (! (not true) :named ssa_postcond))
(assert (! (and (< 0 |#StackHeapBarrier_-1|) (= 12 (select |#length_-1| 3)) (= (select |#valid_-1| 3) 1) (= (select |#valid_-1| 2) 1) (= (select |#valid_-1| 1) 1) (= (select |#length_-1| 2) 11) (= (select (select |#memory_int#0_-1| 1) 1) 0) (= (select |#length_-1| 1) 2) (= (select (select |#memory_int#0_-1| 1) 0) 48) (= (select |#valid_-1| 0) 0)) :named ssa_0))
(assert (! true :named ssa_1_return))
(assert (! true :named ssa_-2_PendingContext))
(assert (! true :named ssa_-2_LocVarAssignPendingContext))
(assert (! true :named ssa_-2_OldVarAssignPendingContext))
(check-sat)
(get-interpolants (and ssa_0 ssa_precond) (and ssa_-2_PendingContext ssa_-2_LocVarAssignPendingContext ssa_-2_OldVarAssignPendingContext ssa_1_return ssa_postcond))
(echo "finished trace check")
(pop 1)
(exit)
